
  32    4
  10   10   10   10

   0   0   0   0   0   4 2 4 6 7 
   4   1   1   0   1   2 11 3 
   4   0   7   1   4   1 5 
   1   2   3   0   3   5 19 17 13 11 9 
   7   3   0   5   4   4 21 19 15 8 
   1   7   4   5   0   2 17 8 
   6   5   0   3   4   3 17 12 10 
  10   5   5   0   4   3 23 12 10 
  10   5   1   4   0   3 31 23 12 
   9   7   0   5   4   2 31 13 
   4   7   5   0   3   1 12 
   7   6   5   4   0   2 30 14 
   4   5   2   4   0   2 30 14 
   1   2   4   3   0   1 16 
   7   4   4   4   0   3 31 30 20 
   7   3   0   5   6   2 27 18 
   2   3   0   4   5   2 24 21 
   5   2   4   0   3   1 20 
  10   1   4   0   4   3 31 29 24 
   6   3   0   6   6   2 29 22 
   7   3   4   0   3   3 30 29 25 
  10   7   6   5   0   1 24 
   9   5   0   5   3   1 24 
  10   0   4   1   6   1 25 
   3   7   3   6   0   1 26 
   7   2   4   0   5   1 28 
   1   5   3   0   2   1 28 
   1   3   4   0   7   1 32
  10   1   5   0   6   1 32
   5   0   5   3   3   1 32
   5   0   5   3   2   1 32
   0   0   0   0   0   0 
